879072
0,47,36,79,98,67,71,35,37,75,86,44,85,80,13,38,91,83,21,72,6,3,65,94,24,77,50,78,28,39,11,93,25,16,18,42,51,64,22,10,97,53,23,58,89,70,33,27,45,66,57,60,81,15,14,82,87,49,41,96,34,1,26,63,4,2,84,88,7,52,90,43,54,48,92,61,9,55,17,68,74,5,40,76,29,95,20,19,59,30,62,12,31,73,69,8,32,56,46,0